nPeces = 20;

durada = [45,40,45,10,30,5,50,40,15,35,50,10,5,50,50,30,25,45,45,35];

nInstruments = 4;

requereix = [| 1, 1, 0, 0, 
| 0, 3, 1, 0, 
| 3, 0, 3, 0, 
| 1, 3, 0, 0, 
| 3, 0, 2, 0, 
| 1, 0, 1, 0, 
| 3, 3, 0, 0, 
| 0, 2, 3, 0, 
| 0, 3, 0, 2, 
| 1, 2, 0, 0, 
| 0, 0, 1, 3, 
| 0, 3, 0, 2, 
| 1, 0, 0, 2, 
| 0, 2, 0, 2, 
| 0, 0, 3, 3, 
| 0, 1, 3, 0, 
| 3, 1, 0, 0, 
| 1, 0, 0, 2, 
| 0, 1, 1, 0, 
| 2, 1, 0, 0, 
|];

nMusics = 10;

saptocar = [| true, true, true, false, 
| true, true, false, true, 
| true, false, false, false, 
| false, true, true, false, 
| true, false, false, true, 
| false, true, true, true, 
| false, true, true, false, 
| false, true, false, true, 
| false, true, true, false, 
| true, false, true, true, 
|];

pressupost = 1310;

salari = [3,3,2,2,2,3,2,2,2,3];

nPrecs = 25;
pred = [1,2,2,3,4,4,4,5,6,6,6,7,7,8,8,9,10,10,11,12,13,14,15,16,17];
succ = [20,8,4,5,16,5,6,19,11,12,7,9,17,10,13,13,20,14,18,15,17,16,18,19,19];

